RSW07
Position Depot: Random
Horizon for Depot: Small
Position of customers: Random
Distribution of the demand: Large
Width of time windows: Wide
Distribution of the service: Small

VEHICLE 
NUMBER 	 CAPACITY 
 6 	 	 390 
 
CUSTOMER
CUST NO. 	 XCOORD.  	 YCOORD. 	 DEMAND 	 READY TIME 	 DUE DATE 	 SERVICE TIME 
 0 	 	 962 	 	 114 	 	 0 	 	 0 	 	 2186 	 	 0 
  1 	 	 313 	 	 958 	 	 20 	 	 884 	 	 1298 	 	 66 
  2 	 	 117 	 	 18 	 	 1 	 	 1290 	 	 1746 	 	 61 
  3 	 	 58 	 	 335 	 	 21 	 	 806 	 	 1023 	 	 51 
  4 	 	 267 	 	 253 	 	 4 	 	 970 	 	 1416 	 	 96 
  5 	 	 739 	 	 612 	 	 83 	 	 1814 	 	 2186 	 	 87 
  6 	 	 91 	 	 204 	 	 23 	 	 1315 	 	 1560 	 	 100 
  7 	 	 378 	 	 147 	 	 47 	 	 576 	 	 1012 	 	 74 
  8 	 	 458 	 	 355 	 	 79 	 	 288 	 	 614 	 	 64 
  9 	 	 97 	 	 241 	 	 12 	 	 1044 	 	 1511 	 	 73 
  10 	 	 83 	 	 124 	 	 76 	 	 1312 	 	 1639 	 	 85 
  11 	 	 290 	 	 792 	 	 81 	 	 1136 	 	 1399 	 	 60 
  12 	 	 732 	 	 416 	 	 28 	 	 1765 	 	 2034 	 	 99 
  13 	 	 201 	 	 855 	 	 11 	 	 1658 	 	 1895 	 	 74 
  14 	 	 157 	 	 584 	 	 32 	 	 1068 	 	 1399 	 	 88 
  15 	 	 523 	 	 742 	 	 74 	 	 1762 	 	 2159 	 	 57 
  16 	 	 111 	 	 911 	 	 85 	 	 1256 	 	 1688 	 	 80 
  17 	 	 674 	 	 919 	 	 51 	 	 619 	 	 1119 	 	 71 
  18 	 	 153 	 	 642 	 	 35 	 	 1181 	 	 1481 	 	 88 
  19 	 	 46 	 	 948 	 	 85 	 	 1480 	 	 1816 	 	 70 
  20 	 	 827 	 	 110 	 	 81 	 	 391 	 	 695 	 	 73 
  21 	 	 481 	 	 646 	 	 42 	 	 560 	 	 788 	 	 95 
  22 	 	 469 	 	 137 	 	 59 	 	 1726 	 	 2186 	 	 98 
  23 	 	 218 	 	 821 	 	 36 	 	 914 	 	 1193 	 	 68 
  24 	 	 121 	 	 995 	 	 41 	 	 965 	 	 1339 	 	 70 
  25 	 	 201 	 	 777 	 	 16 	 	 1548 	 	 1856 	 	 76 
  26 	 	 798 	 	 136 	 	 66 	 	 1941 	 	 2186 	 	 74 
  27 	 	 29 	 	 395 	 	 18 	 	 1424 	 	 1801 	 	 89 
  28 	 	 779 	 	 528 	 	 51 	 	 475 	 	 722 	 	 98 
  29 	 	 988 	 	 702 	 	 67 	 	 794 	 	 1096 	 	 81 
  30 	 	 484 	 	 387 	 	 99 	 	 1136 	 	 1465 	 	 85 
  31 	 	 992 	 	 893 	 	 2 	 	 1718 	 	 2186 	 	 94 
  32 	 	 755 	 	 943 	 	 94 	 	 961 	 	 1173 	 	 74 
  33 	 	 758 	 	 534 	 	 51 	 	 448 	 	 735 	 	 89 
  34 	 	 265 	 	 101 	 	 53 	 	 322 	 	 766 	 	 75 
  35 	 	 935 	 	 54 	 	 63 	 	 90 	 	 578 	 	 55 
  36 	 	 227 	 	 924 	 	 44 	 	 1392 	 	 1767 	 	 72 
  37 	 	 730 	 	 681 	 	 97 	 	 865 	 	 1188 	 	 76 
  38 	 	 140 	 	 770 	 	 29 	 	 1530 	 	 1753 	 	 65 
  39 	 	 192 	 	 581 	 	 19 	 	 1240 	 	 1535 	 	 56 
  40 	 	 924 	 	 789 	 	 27 	 	 1609 	 	 1835 	 	 82 
  41 	 	 340 	 	 883 	 	 69 	 	 1291 	 	 1669 	 	 92 
  42 	 	 724 	 	 447 	 	 30 	 	 1238 	 	 1632 	 	 54 
  43 	 	 230 	 	 929 	 	 60 	 	 823 	 	 1205 	 	 90 
  44 	 	 981 	 	 377 	 	 12 	 	 1664 	 	 2127 	 	 76 
  45 	 	 386 	 	 796 	 	 34 	 	 547 	 	 981 	 	 79 
  46 	 	 680 	 	 152 	 	 34 	 	 -157 	 	 313 	 	 73 
  47 	 	 433 	 	 947 	 	 31 	 	 1219 	 	 1657 	 	 71 
  48 	 	 451 	 	 532 	 	 97 	 	 452 	 	 726 	 	 95 
  49 	 	 777 	 	 246 	 	 89 	 	 247 	 	 562 	 	 67 
  50 	 	 373 	 	 229 	 	 73 	 	 541 	 	 968 	 	 72 
 